1586
41 34 7 86 59 58 8 55 83 95 5 64 20 52 73 10 38 43 26 2 30 65 16 90 12 99 48 32 25 24 92 88 51 18 19 11 50 22 46 14 13 3 49 74 81 76 27 44 89 9 79 61 68 35 45 54 1 85 60 23 69 78 56 21 77 4 75 93 29 98 96 84 94 15 62 82 40 80 91 42 72 97 39 6 71 33 31 37 66 28 53 67 47 63 87 57 70 36 17 
